language Essence 1.3

letting bot_end be [143, 387, 144, 116, 376, 6, 99, 42, 145, 282, 13, 150, 300, 154, 43, 127, 336, 131; int(1..18)]
letting bot_start be [15, 153, 369, 79, 313, 376, 181, 76, 44, 77, 231, 309, 66, 203, 283, 282, 39, 25; int(1..18)]
letting bots be 18
letting buffer_col be 2
letting buffer_row be 2
letting corridor_size be 1
letting n_shelves_col be 3
letting n_shelves_row be 13
letting shelf_col_size be 2
letting shelf_row_size be 1
